Traveling Salesman Problem/TSP_generados/Aleatorio1621103295_8.tsp
NAME: Aleatorio1621103295_8.tsp
COMMENT: Randomly generated scenario
TYPE: TSP
DIMENSION: 8
EDGE_WEIGHT_TYPE: ATT
NODE_COORD_SECTION
1 27.95 11.02
2 46.38 7.35
3 7.03 24.33
4 29.83 16.86
5 37.17 9.2
6 37.79 23.2
7 14.81 27.9
8 9.91 27.84
