Traveling Salesman Problem/TSP_generados/Aleatorio1621103295_8.opt.tour
NAME: Aleatorio1621103295_8.opt.tour
COMMENT: Optimal solution for Aleatorio1621103295_8 (99.84399158373904)
TYPE: TOUR
DIMENSION: 8
TOUR_SECTION
1 4 3 8 7 6 2 5
-1
EOF
